NAME: ch130
COMMENT: Quick (5min) local search tour for ch130 (7055.184223925302)
TYPE: TOUR
DIMENSION: 130
TOUR_SECTION: 1 41 39 71 130 50 2 118 80 46 18 8 108 114 126 85 66 125 90 78 121 59 30 83 3 21 33 13 67 96 10 14 55 122 23 22 37 47 40 44 42 93 20 4 35 54 17 31 34 43 104 127 107 48 25 32 113 36 84 119 111 123 101 82 57 9 52 75 74 99 73 92 72 91 6 102 51 60 120 53 49 58 106 38 79 95 116 100 19 27 29 15 24 56 65 12 87 81 103 77 94 89 110 98 68 63 70 7 97 26 88 86 69 64 11 5 28 115 117 112 62 105 128 16 45 76 109 61 124 129 -1
EOF